n_res = 4;
rc = [ 16, 23, 17, 21 ];
n_tasks = 30;
d = [ 7, 10, 1, 1, 7, 3, 2, 8, 4, 1, 4, 8, 2, 4, 10, 5, 1, 4, 4, 7, 2, 4, 8, 9, 1, 8, 10, 6, 6, 7 ];
rr = [| 2, 0, 8, 6, 4, 10, 4, 5, 5, 0, 3, 0, 0, 2, 9, 5, 4, 8, 3, 8, 4, 9, 0, 0, 6, 0, 10, 0, 8, 0
      | 0, 7, 1, 2, 3, 6, 8, 8, 6, 8, 5, 3, 6, 1, 7, 0, 0, 0, 10, 1, 0, 10, 1, 9, 8, 9, 4, 6, 5, 2
      | 2, 0, 0, 4, 6, 0, 3, 6, 2, 9, 1, 1, 2, 9, 6, 6, 2, 1, 3, 6, 5, 7, 1, 0, 3, 9, 4, 0, 0, 0
      | 1, 7, 10, 10, 1, 9, 1, 0, 0, 0, 4, 8, 4, 4, 10, 1, 0, 10, 4, 4, 0, 0, 2, 1, 0, 3, 6, 0, 10, 10 |];
suc = [ { 2 }, 
        { 1 }, 
        { 4 }, 
        { 3 }, 
        { 6 }, 
        { 5 }, 
        { 8 }, 
        { 7 }, 
        { 10 }, 
        { 9 }, 
        { 12 }, 
        { 11 }, 
        { 14 }, 
        { 13 }, 
        { 16 }, 
        { 15 }, 
        { 18 }, 
        { 17 }, 
        { 20 }, 
        { 19 }, 
        { 22 }, 
        { 21 }, 
        { 24 }, 
        { 23 }, 
        { 26 }, 
        { 25 }, 
        { 28 }, 
        { 27 }, 
        { 30 }, 
        { 29 }]; 
